% Auto-generated by scripts/generate_dzn.py
% problem_type   = regex
% instance       = regex_19
% source_json    = instances_json/1_medium_blowup/regex_19.json
% blowup         = 2.7777777777777777
% representation = NFA

mode = 1;

var_count = 13;
n_constraints = 2;
Q = 10;
S = 3;
q0 = [1, 1];
F = [{10}, {8}];
weights = [10, 9, 3, 10, 2, 2, 10, 7, 8, 3, 7, 4, 3];
d_dfa = array3d(1..2, 1..10, 1..3, [
  % k = 1
    0, 0, 0,
    0, 0, 0,
    0, 0, 0,
    0, 0, 0,
    0, 0, 0,
    0, 0, 0,
    0, 0, 0,
    0, 0, 0,
    0, 0, 0,
    0, 0, 0,

  % k = 2
    0, 0, 0,
    0, 0, 0,
    0, 0, 0,
    0, 0, 0,
    0, 0, 0,
    0, 0, 0,
    0, 0, 0,
    0, 0, 0,
    0, 0, 0,
    0, 0, 0
]);
d_nfa = array3d(1..2, 1..10, 1..3, [
  % k = 1
    {1}, {1, 2}, {1},
    {3}, {}, {},
    {}, {}, {4},
    {5}, {5}, {5},
    {6}, {6}, {6},
    {7}, {7}, {7},
    {8}, {8}, {8},
    {9}, {9}, {9},
    {10}, {10}, {10},
    {}, {}, {},

  % k = 2
    {2}, {1}, {1},
    {3}, {2}, {2},
    {4}, {3}, {3},
    {5}, {4}, {4},
    {6}, {5}, {5},
    {7}, {6}, {6},
    {8}, {7}, {7},
    {}, {8}, {8},
    {}, {}, {},
    {}, {}, {}
]);
